(set-option :produce-models true)
(set-logic QF_UF)
(declare-fun p6() Bool)
(declare-fun p14() Bool)
(declare-fun p58() Bool)
(declare-fun p3() Bool)
(declare-fun p51() Bool)
(declare-fun p35() Bool)
(declare-fun p5() Bool)
(declare-fun p15() Bool)
(declare-fun p19() Bool)
(declare-fun p21() Bool)
(declare-fun p27() Bool)
(declare-fun p46() Bool)
(declare-fun p68() Bool)
(declare-fun p31() Bool)
(declare-fun p62() Bool)
(declare-fun p44() Bool)
(declare-fun p26() Bool)
(declare-fun p59() Bool)
(declare-fun p11() Bool)
(declare-fun p17() Bool)
(declare-fun p7() Bool)
(declare-fun p65() Bool)
(declare-fun p29() Bool)
(declare-fun p13() Bool)
(declare-fun p40() Bool)
(declare-fun p36() Bool)
(declare-fun p52() Bool)
(declare-fun p42() Bool)
(declare-fun p43() Bool)
(declare-fun p18() Bool)
(declare-fun p22() Bool)
(declare-fun p63() Bool)
(declare-fun p34() Bool)
(declare-fun p28() Bool)
(declare-fun p45() Bool)
(declare-fun p38() Bool)
(declare-fun p49() Bool)
(declare-fun p55() Bool)
(declare-fun p67() Bool)
(declare-fun p24() Bool)
(declare-fun p10() Bool)
(declare-fun p30() Bool)
(declare-fun p69() Bool)
(declare-fun p50() Bool)
(declare-fun p53() Bool)
(declare-fun p32() Bool)
(declare-fun p41() Bool)
(declare-fun p33() Bool)
(declare-fun p8() Bool)
(declare-fun p64() Bool)
(declare-fun p60() Bool)
(declare-fun p39() Bool)
(declare-fun p54() Bool)
(declare-fun p4() Bool)
(declare-fun p16() Bool)
(declare-fun p0() Bool)
(declare-fun p48() Bool)
(declare-fun p2() Bool)
(declare-fun p9() Bool)
(declare-fun p1() Bool)
(declare-fun p25() Bool)
(declare-fun p37() Bool)
(declare-fun p56() Bool)
(declare-fun p12() Bool)
(declare-fun p20() Bool)
(declare-fun p23() Bool)
(declare-fun p47() Bool)
(declare-fun p57() Bool)
(declare-fun p66() Bool)
(declare-fun p61() Bool)
(assert
(and (or (not p6) p14 p58) (or p3 (not p51) (not p35)) (or (not p14) p5 p15) (or (not p15) p19 (not p21)) (or p27 p46 p68) (or p31 (not p62) p19) (or (not p44) p26 (not p59)) (or p11 (not p17) p7) (or p46 (not p65) (not p29)) (or (not p13) (not p40) (not p36)) (or p52 (not p13) p42) (or (not p43) p68 p18) (or (not p22) p63 p34) (or (not p52) (not p28) p45) (or p38 p31 (not p18)) (or (not p68) p5 p17) (or p7 (not p14) (not p49)) (or p46 p43 (not p55)) (or p42 p67 (not p46)) (or p24 p42 p10) (or (not p13) p30 (not p38)) (or (not p21) (not p44) (not p24)) (or (not p17) (not p13) p29) (or (not p45) (not p19) p69) (or (not p17) p50 p19) (or p53 p28 (not p59)) (or p10 p10 p40) (or p51 (not p63) p32) (or (not p10) (not p41) p53) (or p33 p44 (not p8)) (or (not p42) p40 p64) (or (not p46) (not p60) (not p39)) (or p42 p54 p31) (or p28 p4 (not p35)) (or p6 p38 p16) (or p6 (not p31) p41) (or p0 p29 p32) (or p58 p48 (not p6)) (or p68 (not p2) (not p41)) (or p9 p0 (not p62)) (or p52 (not p7) (not p18)) (or p14 p59 (not p10)) (or p63 (not p62) (not p54)) (or (not p64) p54 (not p43)) (or (not p52) p18 (not p67)) (or p1 p46 (not p3)) (or p54 p32 (not p39)) (or (not p5) p44 (not p24)) (or (not p31) p63 (not p0)) (or (not p34) p27 (not p25)) (or p62 p64 p31) (or p22 p1 (not p37)) (or p15 (not p5) p0) (or p51 (not p52) p56) (or p50 (not p26) (not p2)) (or (not p9) (not p12) (not p20)) (or p51 p19 (not p20)) (or (not p30) p21 p56) (or (not p31) (not p24) p46) (or p11 p23 p32) (or (not p69) p31 (not p34)) (or (not p47) p23 (not p32)) (or p46 p1 (not p38)) (or (not p17) (not p0) (not p8)) (or (not p16) (not p42) (not p24)) (or p34 (not p67) p64) (or (not p41) (not p64) (not p29)) (or p7 p19 p58) (or p32 (not p69) p27) (or p50 p5 (not p46)) (or (not p68) p39 (not p51)) (or p23 (not p64) (not p57)) (or (not p50) (not p6) (not p12)) (or p27 p24 p19) (or p32 (not p11) p44) (or p38 (not p6) (not p13)) (or p8 p48 p17) (or (not p12) p62 p41) (or (not p9) (not p14) p41) (or (not p58) (not p15) (not p18)) (or p38 (not p16) p43) (or (not p60) p18 p60) (or p40 (not p67) p16) (or p33 (not p49) p57) (or (not p69) p29 (not p20)) (or p45 p54 (not p28)) (or p62 p24 p17) (or (not p5) (not p20) (not p24)) (or p8 p40 p50) (or p7 (not p55) (not p14)) (or (not p66) p69 (not p28)) (or (not p2) p34 (not p20)) (or p13 (not p23) (not p67)) (or (not p56) p55 p44) (or (not p28) p51 p62) (or p40 p1 (not p31)) (or p33 (not p8) (not p61)) (or (not p9) p69 p5) (or (not p64) p67 p23) (or (not p24) (not p57) p40) (or (not p42) (not p68) p60) (or p14 p54 (not p60)) (or p40 (not p51) (not p66)) (or (not p39) p35 p22) (or p64 (not p13) p26) (or (not p39) (not p66) (not p64)) (or p20 p62 p63) (or (not p19) (not p66) p69) (or (not p40) p7 (not p32)) (or p53 (not p7) (not p6)) (or p68 p28 p48) (or (not p32) p38 (not p66)) (or (not p52) p64 (not p28)) (or p6 p4 (not p66)) (or p64 (not p26) (not p6)) (or (not p56) p47 (not p26)) (or (not p63) (not p10) p26) (or (not p21) p51 (not p48)) (or (not p6) p22 (not p41)) (or p2 (not p15) (not p38)) (or p66 p60 (not p60)) (or p38 (not p0) p15) (or (not p5) (not p37) (not p52)) (or (not p24) p58 p26) (or (not p66) p51 (not p54)) (or p26 p45 (not p60)) (or p46 (not p49) p14) (or p12 p60 p33) (or p31 p35 (not p53)) (or (not p1) (not p6) (not p50)) (or p0 (not p40) p44) (or (not p66) p24 p3) (or p39 p10 (not p5)) (or (not p53) (not p24) p10) (or (not p47) (not p27) (not p33)) (or p23 (not p30) (not p4)) (or (not p34) p66 (not p61)) (or (not p22) (not p41) p56) (or p9 (not p49) p28) (or (not p27) (not p23) (not p12)) (or (not p11) p27 (not p15)) (or p17 p10 (not p48)) (or p44 (not p25) (not p27)) (or p10 p0 p61) (or (not p35) (not p29) (not p57)) (or (not p11) (not p48) (not p55)) (or p66 p52 p48) (or (not p49) p13 p35) (or p5 p54 p0) (or (not p41) p37 p57) (or (not p35) p44 (not p58)) (or (not p38) (not p46) (not p53)) (or p13 (not p4) (not p0)) (or p54 p27 p61) (or p50 p18 (not p67)) (or (not p15) p35 (not p13)) (or (not p41) (not p52) (not p23)) (or (not p46) (not p51) p0) (or p6 p13 (not p38)) (or p20 p27 (not p7)) (or (not p4) p20 p61) (or p49 p48 (not p56)) (or (not p7) p37 (not p45)) (or (not p39) (not p4) p39) (or p38 (not p19) p22) (or p9 (not p36) p4) (or (not p48) (not p46) p12) (or (not p67) p14 p2) (or (not p59) (not p48) (not p59)) (or p48 p22 (not p50)) (or p39 (not p22) (not p45)) (or (not p5) (not p8) (not p60)) (or p5 p58 (not p46)) (or (not p2) (not p12) (not p55)) (or p58 (not p28) (not p69)) (or p30 p6 (not p26)) (or (not p37) (not p52) p51) (or p2 (not p18) p4) (or (not p60) p20 (not p13)) (or p5 p43 p64) (or p65 (not p34) p52) (or (not p20) p55 p53) (or p40 (not p7) p0) (or p29 (not p60) (not p20)) (or (not p10) (not p33) (not p40)) (or p38 (not p26) p51) (or (not p7) (not p61) (not p32)) (or (not p14) (not p47) (not p13)) (or (not p51) p0 (not p19)) (or p21 p65 p64) (or (not p17) (not p20) p25) (or p18 (not p51) (not p30)) (or p31 (not p69) p50) (or p14 p12 (not p54)) (or (not p12) (not p10) (not p63)) (or p19 p1 p63) (or (not p20) (not p68) p56) (or p10 p33 p6) (or (not p28) (not p32) (not p30)) (or (not p51) (not p23) p67) (or (not p45) p61 p9) (or p4 (not p68) (not p52)) (or p49 (not p17) (not p29)) (or (not p56) (not p63) (not p50)) (or p15 p24 p35) (or (not p69) (not p18) p8) (or p17 p19 p32) (or (not p27) p2 (not p31)) (or p21 p5 p1) (or (not p51) p35 (not p40)) (or p69 (not p55) p59) (or (not p24) (not p63) p10) (or p21 p62 p29) (or (not p61) (not p66) p60) (or (not p9) p20 p9) (or (not p19) p49 (not p8)) (or (not p3) p54 p56) (or p37 p21 p62) (or p58 (not p8) p38) (or (not p41) p15 (not p15)) (or (not p49) (not p8) (not p1)) (or (not p61) (not p60) p4) (or (not p15) p43 (not p11)) (or (not p54) (not p63) p12) (or p14 p18 (not p53)) (or p58 p28 p24) (or (not p43) (not p56) (not p13)) (or p66 p50 (not p39)) (or p67 p11 (not p63)) (or p65 (not p69) p63) (or (not p2) (not p53) (not p12)) (or p5 p67 p15) (or (not p46) p49 p12) (or p19 p41 p23) (or (not p31) p29 (not p22)) (or (not p59) p66 (not p40)) (or (not p40) p62 p8) (or p51 (not p0) (not p0)) (or p22 p57 p1) (or p0 (not p51) p53) (or (not p23) p2 p10) (or (not p8) (not p10) (not p2)) (or p11 (not p45) (not p35)) (or p23 p46 (not p23)) (or (not p45) (not p62) p66) (or p39 p25 (not p26)) (or (not p67) p15 (not p69)) (or (not p38) p26 p66) (or (not p31) p61 p47) (or (not p38) p58 (not p54)) (or (not p16) (not p29) (not p66)) (or p9 p58 (not p9)) (or (not p11) (not p19) p53) (or p32 (not p63) p33) (or (not p33) (not p58) p12) (or p64 (not p17) (not p5)) (or (not p59) p46 p52) (or p13 p25 (not p68)) (or p61 (not p45) p62) (or p48 (not p36) (not p64)) (or p61 p4 (not p14)) (or p49 (not p60) p22) (or (not p16) (not p66) p66) (or p35 p7 p35) (or (not p25) p38 (not p8)) (or (not p48) p17 p16) (or p43 (not p27) p61) (or (not p27) (not p26) p46) (or p60 p60 p54) (or (not p41) (not p25) p33) (or (not p0) (not p1) (not p4)) (or (not p13) (not p28) p64) (or p67 (not p3) (not p33)) (or p45 (not p3) p24) (or (not p60) (not p8) (not p24)) (or p2 (not p15) (not p13)) (or (not p31) (not p26) p35) (or p0 (not p45) p19) (or p55 (not p43) p50) (or p51 p50 (not p37)) (or (not p10) p35 (not p36)) (or (not p11) (not p43) p22) (or (not p15) (not p66) p3) (or p63 p34 p46) (or (not p26) (not p49) (not p9)) (or p34 p11 (not p19)) (or (not p62) p20 p36) (or (not p44) (not p32) p55) (or (not p33) p69 (not p2)) (or (not p30) p24 p27) (or p36 (not p63) p2) (or (not p44) (not p1) (not p12)) (or p63 (not p56) p15) (or p0 p41 p27) (or (not p19) (not p59) (not p3)) (or p15 (not p24) (not p45)) (or (not p6) (not p38) p0))
)
(check-sat)
(get-model)
